n = 60;
costtab =
  [|1, 11, 60, -484,
   |1, 30, 60, -1116,
   |1, 53, 60, -430,
   |1, 1, 1, 0,
   |2, 10, 12, -1031,
   |2, 10, 18, -1031,
   |2, 10, 29, -1031,
   |2, 10, 33, -1021,
   |2, 10, 51, -1032,
   |2, 10, 58, -1021,
   |2, 10, 59, -1031,
   |2, 12, 10, -348,
   |2, 12, 18, -347,
   |2, 12, 29, -347,
   |2, 12, 33, -339,
   |2, 12, 51, -348,
   |2, 12, 58, -340,
   |2, 12, 59, -348,
   |2, 18, 10, -1161,
   |2, 18, 12, -1160,
   |2, 18, 29, -1162,
   |2, 18, 33, -1155,
   |2, 18, 51, -1161,
   |2, 18, 58, -1154,
   |2, 18, 59, -1161,
   |2, 29, 10, -1577,
   |2, 29, 12, -1576,
   |2, 29, 18, -1578,
   |2, 29, 33, -1572,
   |2, 29, 51, -1577,
   |2, 29, 58, -1572,
   |2, 29, 59, -1578,
   |2, 33, 10, -616,
   |2, 33, 12, -617,
   |2, 33, 18, -619,
   |2, 33, 29, -620,
   |2, 33, 51, -616,
   |2, 33, 58, -626,
   |2, 33, 59, -621,
   |2, 51, 10, -1265,
   |2, 51, 12, -1264,
   |2, 51, 18, -1264,
   |2, 51, 29, -1264,
   |2, 51, 33, -1254,
   |2, 51, 58, -1254,
   |2, 51, 59, -1264,
   |2, 58, 10, -430,
   |2, 58, 12, -431,
   |2, 58, 18, -432,
   |2, 58, 29, -434,
   |2, 58, 33, -440,
   |2, 58, 51, -429,
   |2, 58, 59, -434,
   |2, 59, 10, -1941,
   |2, 59, 12, -1941,
   |2, 59, 18, -1941,
   |2, 59, 29, -1941,
   |2, 59, 33, -1936,
   |2, 59, 51, -1941,
   |2, 59, 58, -1936,
   |2, 2, 2, 0,
   |3, 13, 14, -312,
   |3, 13, 23, -310,
   |3, 13, 39, -311,
   |3, 13, 54, -308,
   |3, 14, 13, -936,
   |3, 14, 23, -924,
   |3, 14, 39, -938,
   |3, 14, 54, -924,
   |3, 23, 13, -1089,
   |3, 23, 14, -1078,
   |3, 23, 39, -1085,
   |3, 23, 54, -1093,
   |3, 39, 13, -516,
   |3, 39, 14, -518,
   |3, 39, 23, -511,
   |3, 39, 54, -514,
   |3, 54, 13, -1342,
   |3, 54, 14, -1333,
   |3, 54, 23, -1349,
   |3, 54, 39, -1342,
   |3, 3, 3, 0,
   |4, 19, 34, -664,
   |4, 19, 43, -682,
   |4, 19, 47, -645,
   |4, 19, 57, -681,
   |4, 34, 19, -490,
   |4, 34, 43, -499,
   |4, 34, 47, -505,
   |4, 34, 57, -489,
   |4, 43, 19, -710,
   |4, 43, 34, -701,
   |4, 43, 47, -686,
   |4, 43, 57, -705,
   |4, 47, 19, -677,
   |4, 47, 34, -711,
   |4, 47, 43, -690,
   |4, 47, 57, -679,
   |4, 57, 19, -609,
   |4, 57, 34, -592,
   |4, 57, 43, -606,
   |4, 57, 47, -576,
   |4, 4, 4, 0,
   |5, 6, 18, -1654,
   |5, 6, 29, -1655,
   |5, 6, 32, -1666,
   |5, 6, 37, -1666,
   |5, 6, 47, -1637,
   |5, 6, 52, -1664,
   |5, 18, 6, -997,
   |5, 18, 29, -1009,
   |5, 18, 32, -999,
   |5, 18, 37, -997,
   |5, 18, 47, -1003,
   |5, 18, 52, -1001,
   |5, 29, 6, -724,
   |5, 29, 18, -735,
   |5, 29, 32, -727,
   |5, 29, 37, -725,
   |5, 29, 47, -730,
   |5, 29, 52, -731,
   |5, 32, 6, -781,
   |5, 32, 18, -771,
   |5, 32, 29, -772,
   |5, 32, 37, -781,
   |5, 32, 47, -756,
   |5, 32, 52, -780,
   |5, 37, 6, -1159,
   |5, 37, 18, -1147,
   |5, 37, 29, -1148,
   |5, 37, 32, -1159,
   |5, 37, 47, -1131,
   |5, 37, 52, -1157,
   |5, 47, 6, -717,
   |5, 47, 18, -740,
   |5, 47, 29, -742,
   |5, 47, 32, -722,
   |5, 47, 37, -719,
   |5, 47, 52, -730,
   |5, 52, 6, -461,
   |5, 52, 18, -455,
   |5, 52, 29, -458,
   |5, 52, 32, -462,
   |5, 52, 37, -461,
   |5, 52, 47, -447,
   |5, 5, 5, 0,
   |6, 5, 24, -1662,
   |6, 5, 37, -1666,
   |6, 24, 5, -468,
   |6, 24, 37, -469,
   |6, 37, 5, -567,
   |6, 37, 24, -564,
   |6, 6, 6, 0,
   |7, 31, 35, -544,
   |7, 31, 45, -530,
   |7, 35, 31, -598,
   |7, 35, 45, -567,
   |7, 45, 31, -331,
   |7, 45, 35, -314,
   |7, 7, 7, 0,
   |8, 46, 55, -249,
   |8, 55, 46, -195,
   |8, 8, 8, 0,
   |9, 23, 54, -442,
   |9, 23, 58, -453,
   |9, 54, 23, -257,
   |9, 54, 58, -267,
   |9, 58, 23, -1140,
   |9, 58, 54, -1138,
   |9, 9, 9, 0,
   |10, 2, 12, -1032,
   |10, 2, 23, -1019,
   |10, 2, 41, -1029,
   |10, 2, 54, -1019,
   |10, 12, 2, -756,
   |10, 12, 23, -743,
   |10, 12, 41, -752,
   |10, 12, 54, -744,
   |10, 23, 2, -580,
   |10, 23, 12, -581,
   |10, 23, 41, -569,
   |10, 23, 54, -592,
   |10, 41, 2, -310,
   |10, 41, 12, -309,
   |10, 41, 23, -288,
   |10, 41, 54, -286,
   |10, 54, 2, -961,
   |10, 54, 12, -962,
   |10, 54, 23, -973,
   |10, 54, 41, -947,
   |10, 60, 2, -611,
   |10, 60, 12, -613,
   |10, 60, 23, -608,
   |10, 60, 41, -603,
   |10, 60, 54, -613,
   |10, 10, 10, 0,
   |11, 27, 1, -570,
   |11, 27, 38, -582,
   |11, 27, 41, -585,
   |11, 38, 1, -346,
   |11, 38, 27, -344,
   |11, 38, 41, -341,
   |11, 41, 1, -501,
   |11, 41, 27, -524,
   |11, 41, 38, -519,
   |11, 11, 11, 0,
   |12, 2, 10, -310,
   |12, 2, 44, -331,
   |12, 2, 51, -307,
   |12, 10, 2, -717,
   |12, 10, 44, -749,
   |12, 10, 51, -756,
   |12, 44, 2, -385,
   |12, 44, 10, -395,
   |12, 44, 51, -394,
   |12, 51, 2, -939,
   |12, 51, 10, -980,
   |12, 51, 44, -972,
   |12, 12, 12, 0,
   |13, 3, 17, -312,
   |13, 17, 3, -611,
   |13, 13, 13, 0,
   |14, 3, 19, -928,
   |14, 3, 25, -933,
   |14, 3, 39, -939,
   |14, 3, 43, -928,
   |14, 19, 3, -512,
   |14, 19, 25, -515,
   |14, 19, 39, -513,
   |14, 19, 43, -520,
   |14, 25, 3, -755,
   |14, 25, 19, -754,
   |14, 25, 39, -760,
   |14, 25, 43, -761,
   |14, 39, 3, -633,
   |14, 39, 19, -623,
   |14, 39, 25, -632,
   |14, 39, 43, -628,
   |14, 43, 3, -457,
   |14, 43, 19, -466,
   |14, 43, 25, -468,
   |14, 43, 39, -463,
   |14, 14, 14, 0,
   |15, 42, 48, -528,
   |15, 42, 50, -496,
   |15, 48, 42, -752,
   |15, 48, 50, -722,
   |15, 50, 42, -680,
   |15, 50, 48, -682,
   |15, 15, 15, 0,
   |16, 49, 56, -286,
   |16, 56, 49, -479,
   |16, 16, 16, 0,
   |17, 17, 17, 0,
   |18, 2, 5, -1133,
   |18, 2, 23, -1151,
   |18, 2, 29, -1121,
   |18, 2, 32, -1125,
   |18, 2, 44, -1162,
   |18, 2, 54, -1149,
   |18, 2, 59, -1129,
   |18, 5, 2, -981,
   |18, 5, 23, -998,
   |18, 5, 29, -1007,
   |18, 5, 32, -1007,
   |18, 5, 44, -976,
   |18, 5, 54, -1001,
   |18, 5, 59, -1009,
   |18, 23, 2, -408,
   |18, 23, 5, -406,
   |18, 23, 29, -405,
   |18, 23, 32, -393,
   |18, 23, 44, -406,
   |18, 23, 54, -418,
   |18, 23, 59, -408,
   |18, 29, 2, -448,
   |18, 29, 5, -485,
   |18, 29, 23, -475,
   |18, 29, 32, -485,
   |18, 29, 44, -446,
   |18, 29, 54, -477,
   |18, 29, 59, -487,
   |18, 32, 2, -1077,
   |18, 32, 5, -1110,
   |18, 32, 23, -1089,
   |18, 32, 29, -1110,
   |18, 32, 44, -1075,
   |18, 32, 54, -1093,
   |18, 32, 59, -1109,
   |18, 44, 2, -707,
   |18, 44, 5, -673,
   |18, 44, 23, -695,
   |18, 44, 29, -664,
   |18, 44, 32, -669,
   |18, 44, 54, -692,
   |18, 44, 59, -670,
   |18, 54, 2, -862,
   |18, 54, 5, -865,
   |18, 54, 23, -874,
   |18, 54, 29, -863,
   |18, 54, 32, -853,
   |18, 54, 44, -860,
   |18, 54, 59, -867,
   |18, 59, 2, -918,
   |18, 59, 5, -950,
   |18, 59, 23, -941,
   |18, 59, 29, -949,
   |18, 59, 32, -946,
   |18, 59, 44, -913,
   |18, 59, 54, -943,
   |18, 18, 18, 0,
   |19, 4, 14, -654,
   |19, 4, 28, -680,
   |19, 4, 43, -672,
   |19, 14, 4, -494,
   |19, 14, 28, -499,
   |19, 14, 43, -518,
   |19, 28, 4, -617,
   |19, 28, 14, -596,
   |19, 28, 43, -613,
   |19, 43, 4, -387,
   |19, 43, 14, -392,
   |19, 43, 28, -391,
   |19, 19, 19, 0,
   |20, 31, 42, -580,
   |20, 31, 55, -620,
   |20, 42, 31, -272,
   |20, 42, 55, -285,
   |20, 55, 31, -1063,
   |20, 55, 42, -1035,
   |20, 20, 20, 0,
   |21, 53, 58, -314,
   |21, 58, 53, -816,
   |21, 21, 21, 0,
   |22, 36, 49, -376,
   |22, 36, 56, -364,
   |22, 49, 36, -626,
   |22, 49, 56, -644,
   |22, 56, 36, -379,
   |22, 56, 49, -409,
   |22, 22, 22, 0,
   |23, 3, 9, -1073,
   |23, 3, 10, -1073,
   |23, 3, 18, -1080,
   |23, 3, 54, -1072,
   |23, 9, 3, -436,
   |23, 9, 10, -424,
   |23, 9, 18, -424,
   |23, 9, 54, -455,
   |23, 10, 3, -572,
   |23, 10, 9, -560,
   |23, 10, 18, -591,
   |23, 10, 54, -564,
   |23, 18, 3, -404,
   |23, 18, 9, -385,
   |23, 18, 10, -415,
   |23, 18, 54, -377,
   |23, 54, 3, -498,
   |23, 54, 9, -519,
   |23, 54, 10, -491,
   |23, 54, 18, -479,
   |23, 23, 23, 0,
   |24, 24, 24, 0,
   |25, 14, 34, -732,
   |25, 14, 39, -757,
   |25, 14, 57, -756,
   |25, 34, 14, -477,
   |25, 34, 39, -486,
   |25, 34, 57, -497,
   |25, 39, 14, -471,
   |25, 39, 34, -454,
   |25, 39, 57, -471,
   |25, 57, 14, -815,
   |25, 57, 34, -810,
   |25, 57, 39, -816,
   |25, 25, 25, 0,
   |26, 30, 41, -435,
   |26, 30, 44, -431,
   |26, 41, 30, -731,
   |26, 41, 44, -728,
   |26, 44, 30, -470,
   |26, 44, 41, -470,
   |26, 26, 26, 0,
   |27, 11, 38, -588,
   |27, 38, 11, -540,
   |27, 27, 27, 0,
   |28, 19, 31, -584,
   |28, 19, 46, -619,
   |28, 19, 57, -619,
   |28, 31, 19, -442,
   |28, 31, 46, -454,
   |28, 31, 57, -438,
   |28, 46, 19, -600,
   |28, 46, 31, -578,
   |28, 46, 57, -594,
   |28, 57, 19, -839,
   |28, 57, 31, -801,
   |28, 57, 46, -833,
   |28, 28, 28, 0,
   |29, 2, 5, -1556,
   |29, 2, 18, -1577,
   |29, 2, 44, -1578,
   |29, 2, 47, -1562,
   |29, 2, 59, -1550,
   |29, 5, 2, -714,
   |29, 5, 18, -713,
   |29, 5, 44, -711,
   |29, 5, 47, -728,
   |29, 5, 59, -734,
   |29, 18, 2, -488,
   |29, 18, 5, -465,
   |29, 18, 44, -488,
   |29, 18, 47, -468,
   |29, 18, 59, -456,
   |29, 44, 2, -1133,
   |29, 44, 5, -1109,
   |29, 44, 18, -1133,
   |29, 44, 47, -1115,
   |29, 44, 59, -1102,
   |29, 47, 2, -664,
   |29, 47, 5, -672,
   |29, 47, 18, -659,
   |29, 47, 44, -662,
   |29, 47, 59, -675,
   |29, 59, 2, -549,
   |29, 59, 5, -575,
   |29, 59, 18, -544,
   |29, 59, 44, -545,
   |29, 59, 47, -572,
   |29, 29, 29, 0,
   |30, 26, 1, -401,
   |30, 26, 41, -390,
   |30, 26, 44, -425,
   |30, 41, 1, -348,
   |30, 41, 26, -304,
   |30, 41, 44, -332,
   |30, 44, 1, -353,
   |30, 44, 26, -356,
   |30, 44, 41, -349,
   |30, 60, 1, -562,
   |30, 60, 26, -562,
   |30, 60, 41, -559,
   |30, 60, 44, -548,
   |30, 30, 30, 0,
   |31, 7, 20, -539,
   |31, 7, 28, -537,
   |31, 7, 42, -540,
   |31, 7, 55, -544,
   |31, 20, 7, -614,
   |31, 20, 28, -605,
   |31, 20, 42, -622,
   |31, 20, 55, -600,
   |31, 28, 7, -467,
   |31, 28, 20, -461,
   |31, 28, 42, -463,
   |31, 28, 55, -473,
   |31, 42, 7, -869,
   |31, 42, 20, -878,
   |31, 42, 28, -862,
   |31, 42, 55, -857,
   |31, 55, 7, -691,
   |31, 55, 20, -673,
   |31, 55, 28, -689,
   |31, 55, 42, -674,
   |31, 31, 31, 0,
   |32, 5, 18, -774,
   |32, 5, 42, -774,
   |32, 5, 52, -780,
   |32, 5, 59, -780,
   |32, 18, 5, -1107,
   |32, 18, 42, -1099,
   |32, 18, 52, -1108,
   |32, 18, 59, -1108,
   |32, 42, 5, -486,
   |32, 42, 18, -479,
   |32, 42, 52, -489,
   |32, 42, 59, -489,
   |32, 52, 5, -447,
   |32, 52, 18, -443,
   |32, 52, 42, -445,
   |32, 52, 59, -448,
   |32, 59, 5, -866,
   |32, 59, 18, -861,
   |32, 59, 42, -863,
   |32, 59, 52, -867,
   |32, 32, 32, 0,
   |33, 2, 58, -626,
   |33, 58, 2, -245,
   |33, 33, 33, 0,
   |34, 4, 25, -493,
   |34, 4, 57, -507,
   |34, 25, 4, -492,
   |34, 25, 57, -500,
   |34, 57, 4, -877,
   |34, 57, 25, -872,
   |34, 34, 34, 0,
   |35, 7, 40, -593,
   |35, 7, 52, -574,
   |35, 40, 7, -577,
   |35, 40, 52, -574,
   |35, 52, 7, -564,
   |35, 52, 40, -580,
   |35, 35, 35, 0,
   |36, 22, 50, -372,
   |36, 50, 22, -567,
   |36, 36, 36, 0,
   |37, 5, 6, -1115,
   |37, 6, 5, -523,
   |37, 37, 37, 0,
   |38, 11, 27, -339,
   |38, 27, 11, -530,
   |38, 60, 11, -961,
   |38, 60, 27, -960,
   |38, 38, 38, 0,
   |39, 3, 14, -498,
   |39, 3, 25, -483,
   |39, 14, 3, -611,
   |39, 14, 25, -620,
   |39, 25, 3, -438,
   |39, 25, 14, -462,
   |39, 39, 39, 0,
   |40, 35, 48, -585,
   |40, 35, 59, -584,
   |40, 48, 35, -656,
   |40, 48, 59, -656,
   |40, 59, 35, -894,
   |40, 59, 48, -896,
   |40, 40, 40, 0,
   |41, 10, 11, -284,
   |41, 10, 26, -301,
   |41, 10, 30, -303,
   |41, 10, 51, -312,
   |41, 11, 10, -501,
   |41, 11, 26, -507,
   |41, 11, 30, -505,
   |41, 11, 51, -505,
   |41, 26, 10, -720,
   |41, 26, 11, -709,
   |41, 26, 30, -731,
   |41, 26, 51, -715,
   |41, 30, 10, -340,
   |41, 30, 11, -325,
   |41, 30, 26, -349,
   |41, 30, 51, -335,
   |41, 51, 10, -531,
   |41, 51, 11, -508,
   |41, 51, 26, -515,
   |41, 51, 30, -517,
   |41, 60, 10, -670,
   |41, 60, 11, -666,
   |41, 60, 26, -672,
   |41, 60, 30, -672,
   |41, 60, 51, -669,
   |41, 41, 41, 0,
   |42, 15, 20, -501,
   |42, 15, 31, -499,
   |42, 15, 32, -523,
   |42, 15, 48, -492,
   |42, 15, 55, -507,
   |42, 20, 15, -287,
   |42, 20, 31, -314,
   |42, 20, 32, -274,
   |42, 20, 48, -305,
   |42, 20, 55, -312,
   |42, 31, 15, -848,
   |42, 31, 20, -878,
   |42, 31, 32, -842,
   |42, 31, 48, -871,
   |42, 31, 55, -876,
   |42, 32, 15, -488,
   |42, 32, 20, -452,
   |42, 32, 31, -457,
   |42, 32, 48, -475,
   |42, 32, 55, -468,
   |42, 48, 15, -261,
   |42, 48, 20, -288,
   |42, 48, 31, -291,
   |42, 48, 32, -279,
   |42, 48, 55, -289,
   |42, 55, 15, -1240,
   |42, 55, 20, -1258,
   |42, 55, 31, -1259,
   |42, 55, 32, -1235,
   |42, 55, 48, -1252,
   |42, 42, 42, 0,
   |43, 4, 14, -679,
   |43, 4, 19, -703,
   |43, 14, 4, -437,
   |43, 14, 19, -459,
   |43, 19, 4, -390,
   |43, 19, 14, -388,
   |43, 43, 43, 0,
   |44, 12, 18, -379,
   |44, 12, 26, -390,
   |44, 12, 29, -379,
   |44, 12, 30, -390,
   |44, 12, 59, -384,
   |44, 18, 12, -684,
   |44, 18, 26, -698,
   |44, 18, 29, -707,
   |44, 18, 30, -705,
   |44, 18, 59, -706,
   |44, 26, 12, -462,
   |44, 26, 18, -465,
   |44, 26, 29, -467,
   |44, 26, 30, -467,
   |44, 26, 59, -469,
   |44, 29, 12, -1110,
   |44, 29, 18, -1133,
   |44, 29, 26, -1126,
   |44, 29, 30, -1131,
   |44, 29, 59, -1133,
   |44, 30, 12, -354,
   |44, 30, 18, -364,
   |44, 30, 26, -359,
   |44, 30, 29, -364,
   |44, 30, 59, -365,
   |44, 59, 12, -1538,
   |44, 59, 18, -1556,
   |44, 59, 26, -1552,
   |44, 59, 29, -1556,
   |44, 59, 30, -1556,
   |44, 44, 44, 0,
   |45, 45, 45, 0,
   |46, 8, 28, -268,
   |46, 28, 8, -590,
   |46, 46, 46, 0,
   |47, 4, 5, -700,
   |47, 4, 29, -713,
   |47, 5, 4, -732,
   |47, 5, 29, -740,
   |47, 29, 4, -677,
   |47, 29, 5, -672,
   |47, 47, 47, 0,
   |48, 15, 40, -735,
   |48, 15, 42, -751,
   |48, 15, 52, -743,
   |48, 40, 15, -641,
   |48, 40, 42, -636,
   |48, 40, 52, -636,
   |48, 42, 15, -297,
   |48, 42, 40, -276,
   |48, 42, 52, -286,
   |48, 52, 15, -278,
   |48, 52, 40, -266,
   |48, 52, 42, -276,
   |48, 48, 48, 0,
   |49, 16, 22, -289,
   |49, 16, 56, -281,
   |49, 22, 16, -643,
   |49, 22, 56, -645,
   |49, 56, 16, -433,
   |49, 56, 22, -443,
   |49, 49, 49, 0,
   |50, 15, 36, -709,
   |50, 36, 15, -589,
   |50, 50, 50, 0,
   |51, 2, 12, -1265,
   |51, 2, 41, -1264,
   |51, 2, 59, -1236,
   |51, 12, 2, -980,
   |51, 12, 41, -979,
   |51, 12, 59, -953,
   |51, 41, 2, -531,
   |51, 41, 12, -530,
   |51, 41, 59, -497,
   |51, 59, 2, -900,
   |51, 59, 12, -901,
   |51, 59, 41, -894,
   |51, 60, 2, -706,
   |51, 60, 12, -707,
   |51, 60, 41, -702,
   |51, 60, 59, -691,
   |51, 51, 51, 0,
   |52, 5, 32, -435,
   |52, 5, 35, -441,
   |52, 5, 48, -441,
   |52, 5, 59, -459,
   |52, 32, 5, -420,
   |52, 32, 35, -424,
   |52, 32, 48, -424,
   |52, 32, 59, -399,
   |52, 35, 5, -570,
   |52, 35, 32, -569,
   |52, 35, 48, -593,
   |52, 35, 59, -585,
   |52, 48, 5, -266,
   |52, 48, 32, -264,
   |52, 48, 35, -287,
   |52, 48, 59, -280,
   |52, 59, 5, -464,
   |52, 59, 32, -420,
   |52, 59, 35, -461,
   |52, 59, 48, -461,
   |52, 52, 52, 0,
   |53, 21, 1, -325,
   |53, 21, 58, -351,
   |53, 58, 1, -1098,
   |53, 58, 21, -1128,
   |53, 53, 53, 0,
   |54, 3, 9, -1341,
   |54, 3, 10, -1340,
   |54, 3, 18, -1344,
   |54, 3, 23, -1345,
   |54, 3, 58, -1344,
   |54, 9, 3, -264,
   |54, 9, 10, -262,
   |54, 9, 18, -266,
   |54, 9, 23, -266,
   |54, 9, 58, -250,
   |54, 10, 3, -964,
   |54, 10, 9, -963,
   |54, 10, 18, -973,
   |54, 10, 23, -972,
   |54, 10, 58, -967,
   |54, 18, 3, -868,
   |54, 18, 9, -868,
   |54, 18, 10, -873,
   |54, 18, 23, -874,
   |54, 18, 58, -866,
   |54, 23, 3, -516,
   |54, 23, 9, -513,
   |54, 23, 10, -519,
   |54, 23, 18, -520,
   |54, 23, 58, -514,
   |54, 58, 3, -1029,
   |54, 58, 9, -1012,
   |54, 58, 10, -1028,
   |54, 58, 18, -1026,
   |54, 58, 23, -1028,
   |54, 54, 54, 0,
   |55, 8, 20, -195,
   |55, 8, 31, -201,
   |55, 8, 42, -196,
   |55, 20, 8, -1034,
   |55, 20, 31, -1063,
   |55, 20, 42, -1065,
   |55, 31, 8, -670,
   |55, 31, 20, -693,
   |55, 31, 42, -692,
   |55, 42, 8, -1230,
   |55, 42, 20, -1260,
   |55, 42, 31, -1257,
   |55, 55, 55, 0,
   |56, 16, 22, -477,
   |56, 16, 49, -484,
   |56, 22, 16, -402,
   |56, 22, 49, -392,
   |56, 49, 16, -443,
   |56, 49, 22, -426,
   |56, 56, 56, 0,
   |57, 4, 25, -606,
   |57, 4, 28, -610,
   |57, 4, 34, -611,
   |57, 25, 4, -815,
   |57, 25, 28, -816,
   |57, 25, 34, -819,
   |57, 28, 4, -839,
   |57, 28, 25, -836,
   |57, 28, 34, -837,
   |57, 34, 4, -878,
   |57, 34, 25, -878,
   |57, 34, 28, -875,
   |57, 57, 57, 0,
   |58, 2, 9, -410,
   |58, 2, 21, -439,
   |58, 2, 33, -399,
   |58, 2, 53, -439,
   |58, 2, 54, -409,
   |58, 9, 2, -1114,
   |58, 9, 21, -1123,
   |58, 9, 33, -1138,
   |58, 9, 53, -1122,
   |58, 9, 54, -1143,
   |58, 21, 2, -852,
   |58, 21, 9, -833,
   |58, 21, 33, -817,
   |58, 21, 53, -853,
   |58, 21, 54, -832,
   |58, 33, 2, -204,
   |58, 33, 9, -240,
   |58, 33, 21, -208,
   |58, 33, 53, -206,
   |58, 33, 54, -240,
   |58, 53, 2, -1128,
   |58, 53, 9, -1108,
   |58, 53, 21, -1129,
   |58, 53, 33, -1089,
   |58, 53, 54, -1107,
   |58, 54, 2, -1003,
   |58, 54, 9, -1034,
   |58, 54, 21, -1012,
   |58, 54, 33, -1029,
   |58, 54, 53, -1013,
   |58, 58, 58, 0,
   |59, 2, 18, -1941,
   |59, 2, 29, -1939,
   |59, 2, 32, -1926,
   |59, 2, 40, -1931,
   |59, 2, 44, -1941,
   |59, 2, 51, -1940,
   |59, 2, 52, -1926,
   |59, 18, 2, -950,
   |59, 18, 29, -950,
   |59, 18, 32, -940,
   |59, 18, 40, -945,
   |59, 18, 44, -950,
   |59, 18, 51, -949,
   |59, 18, 52, -940,
   |59, 29, 2, -573,
   |59, 29, 18, -576,
   |59, 29, 32, -567,
   |59, 29, 40, -574,
   |59, 29, 44, -575,
   |59, 29, 51, -573,
   |59, 29, 52, -567,
   |59, 32, 2, -851,
   |59, 32, 18, -856,
   |59, 32, 29, -858,
   |59, 32, 40, -860,
   |59, 32, 44, -853,
   |59, 32, 51, -859,
   |59, 32, 52, -867,
   |59, 40, 2, -887,
   |59, 40, 18, -892,
   |59, 40, 29, -895,
   |59, 40, 32, -890,
   |59, 40, 44, -889,
   |59, 40, 51, -887,
   |59, 40, 52, -891,
   |59, 44, 2, -1556,
   |59, 44, 18, -1556,
   |59, 44, 29, -1555,
   |59, 44, 32, -1543,
   |59, 44, 40, -1549,
   |59, 44, 51, -1555,
   |59, 44, 52, -1543,
   |59, 51, 2, -927,
   |59, 51, 18, -927,
   |59, 51, 29, -925,
   |59, 51, 32, -921,
   |59, 51, 40, -919,
   |59, 51, 44, -927,
   |59, 51, 52, -921,
   |59, 52, 2, -453,
   |59, 52, 18, -458,
   |59, 52, 29, -460,
   |59, 52, 32, -469,
   |59, 52, 40, -462,
   |59, 52, 44, -455,
   |59, 52, 51, -461,
   |59, 59, 59, 0,
   |];

